U_100_10.txt

VEHICLE     CAPACITY  LOCATIONS  CUSTOMER  OPTIONS  PRIORITIES  NUMTYPS
10		150		121		100		200		3		4

CUSTOMER  DEMAND
0	 13
1	 12
2	 11
3	 13
4	 10
5	 14
6	 19
7	 17
8	 17
9	 18
10	 13
11	 19
12	 15
13	 11
14	 10
15	 12
16	 19
17	 13
18	 11
19	 19
20	 20
21	 13
22	 20
23	 20
24	 10
25	 18
26	 15
27	 18
28	 16
29	 11
30	 17
31	 11
32	 17
33	 13
34	 15
35	 15
36	 18
37	 15
38	 20
39	 11
40	 11
41	 16
42	 18
43	 20
44	 19
45	 13
46	 16
47	 20
48	 19
49	 17
50	 16
51	 20
52	 15
53	 18
54	 11
55	 11
56	 15
57	 18
58	 19
59	 15
60	 16
61	 13
62	 17
63	 16
64	 17
65	 17
66	 10
67	 16
68	 13
69	 17
70	 16
71	 19
72	 14
73	 14
74	 12
75	 10
76	 19
77	 11
78	 19
79	 20
80	 13
81	 17
82	 20
83	 10
84	 16
85	 13
86	 15
87	 10
88	 16
89	 18
90	 14
91	 12
92	 12
93	 13
94	 15
95	 12
96	 11
97	 14
98	 17
99	 19

LOCATION  XCOORD  YCOORD  CAP  READY  DUE  TYP  SERVICETIME
0		20		25		-1		0		720	 0		0
1		6		50		-1		360		720		 2		6
2		48		3		-1		360		720		 2		6
3		10		41		-1		466		586		 2		6
4		10		3		-1		92		212		 2		6
5		7		19		-1		100		220		 2		6
6		27		33		-1		202		442		 2		6
7		11		13		-1		466		586		 2		6
8		48		14		-1		211		451		 2		6
9		49		4		-1		0		360		 2		6
10		42		25		-1		456		696		 2		6
11		9		9		-1		223		343		 2		6
12		11		14		-1		454		574		 2		6
13		40		5		-1		0		360		 2		6
14		27		38		-1		360		720		 2		6
15		23		46		-1		99		219		 2		6
16		2		37		-1		360		720		 2		6
17		23		10		-1		360		720		 2		6
18		2		32		-1		360		720		 2		6
19		26		49		-1		440		560		 2		6
20		50		18		-1		0		360		 2		6
21		48		45		-1		400		520		 2		6
22		19		26		-1		199		319		 2		6
23		36		36		-1		0		360		 2		6
24		41		39		-1		458		698		 2		6
25		23		36		-1		0		360		 2		6
26		27		5		-1		403		523		 2		6
27		42		43		-1		153		393		 2		6
28		25		31		-1		65		185		 2		6
29		47		20		-1		15		255		 2		6
30		6		33		-1		15		135		 2		6
31		24		30		-1		66		186		 2		6
32		47		5		-1		406		646		 2		6
33		41		34		-1		360		720		 2		6
34		33		15		-1		594		714		 2		6
35		4		18		-1		360		720		 2		6
36		4		38		-1		174		294		 2		6
37		19		5		-1		0		360		 2		6
38		6		35		-1		209		329		 2		6
39		34		8		-1		156		276		 2		6
40		3		40		-1		383		623		 2		6
41		45		11		-1		478		598		 2		6
42		22		13		-1		494		614		 2		6
43		15		45		-1		9		249		 2		6
44		36		17		-1		188		308		 2		6
45		23		46		-1		0		360		 2		6
46		48		49		-1		360		720		 2		6
47		4		15		-1		307		547		 2		6
48		3		10		-1		97		217		 2		6
49		28		9		-1		403		523		 2		6
50		27		27		-1		0		360		 2		6
51		21		1		-1		440		680		 2		6
52		9		1		-1		175		295		 2		6
53		30		41		-1		0		360		 2		6
54		10		24		-1		360		720		 2		6
55		43		35		-1		360		720		 2		6
56		13		36		-1		360		720		 2		6
57		29		49		-1		422		662		 2		6
58		17		28		-1		0		360		 2		6
59		50		33		-1		128		248		 2		6
60		31		23		-1		37		277		 2		6
61		37		45		-1		0		360		 2		6
62		6		41		-1		371		491		 2		6
63		12		6		-1		360		720		 2		6
64		12		11		-1		360		720		 2		6
65		11		32		-1		0		360		 2		6
66		10		44		-1		360		720		 2		6
67		42		41		-1		360		720		 2		6
68		48		42		-1		360		720		 2		6
69		7		42		-1		549		669		 2		6
70		11		17		-1		167		407		 2		6
71		6		32		-1		360		720		 2		6
72		47		2		-1		45		165		 2		6
73		19		5		-1		0		360		 2		6
74		3		27		-1		94		214		 2		6
75		8		11		-1		341		581		 2		6
76		50		34		-1		539		659		 2		6
77		39		27		-1		0		360		 2		6
78		24		17		-1		363		483		 2		6
79		8		47		-1		32		152		 2		6
80		43		25		-1		508		628		 2		6
81		47		3		-1		520		640		 2		6
82		7		41		-1		84		324		 2		6
83		5		35		-1		360		720		 2		6
84		29		7		-1		360		720		 2		6
85		28		16		-1		201		441		 2		6
86		50		26		-1		469		589		 2		6
87		17		24		-1		0		360		 2		6
88		16		21		-1		580		700		 2		6
89		36		7		-1		0		360		 2		6
90		3		27		-1		0		360		 2		6
91		7		43		-1		0		360		 2		6
92		13		22		-1		55		295		 2		6
93		14		49		-1		409		529		 2		6
94		35		34		-1		554		674		 2		6
95		37		9		-1		360		720		 2		6
96		50		25		-1		361		481		 2		6
97		8		20		-1		459		699		 2		6
98		34		47		-1		536		656		 2		6
99		25		16		-1		178		298		 2		6
100		17		32		-1		177		297		 2		6
101		12		37		4		0		720		 1		4
102		45		26		5		72		552		 1		4
103		42		36		5		91		571		 1		4
104		37		37		4		0		720		 1		4
105		42		37		5		21		501		 1		4
106		12		15		5		163		643		 1		4
107		11		25		4		0		720		 1		4
108		14		6		4		0		720		 1		4
109		29		12		5		6		486		 1		4
110		41		43		5		233		713		 1		4
111		24		5		5		140		620		 1		4
112		32		18		5		30		510		 1		4
113		43		8		5		0		720		 1		4
114		35		25		5		120		600		 1		4
115		39		32		5		0		720		 1		4
116		41		24		4		0		720		 1		4
117		40		32		5		175		655		 1		4
118		7		38		5		215		695		 1		4
119		34		36		5		122		602		 1		4
120		42		28		5		33		513		 1		4
OPTION  LOCATION  CUSTOMER  PRIO  SERVICETIME   COST
0		108		0		0		2		0
1		113		1		0		2		0
2		107		2		0		2		0
3		117		3		0		2		0
4		103		4		0		2		0
5		117		5		0		2		0
6		119		6		0		2		0
7		103		7		0		2		0
8		115		8		0		2		0
9		111		9		0		2		0
10		118		10		0		2		0
11		116		11		0		2		0
12		109		12		0		2		0
13		107		13		0		2		0
14		109		14		0		2		0
15		104		15		0		2		0
16		118		16		0		2		0
17		112		17		0		2		0
18		109		18		0		2		0
19		116		19		0		2		0
20		1		20		0		5		0
21		2		21		0		5		0
22		3		22		0		5		0
23		4		23		0		5		0
24		5		24		0		5		0
25		6		25		0		5		0
26		7		26		0		5		0
27		8		27		0		5		0
28		9		28		0		5		0
29		10		29		0		5		0
30		11		30		0		5		0
31		12		31		0		5		0
32		13		32		0		5		0
33		14		33		0		5		0
34		15		34		0		5		0
35		16		35		0		5		0
36		17		36		0		5		0
37		18		37		0		5		0
38		19		38		0		5		0
39		20		39		0		5		0
40		21		40		0		5		0
41		120		40		1		2		0
42		22		41		0		5		0
43		105		41		1		2		0
44		23		42		1		5		0
45		119		42		0		2		0
46		24		43		1		5		0
47		110		43		0		2		0
48		25		44		1		5		0
49		115		44		0		2		0
50		26		45		0		5		0
51		106		45		1		2		0
52		27		46		1		5		0
53		119		46		0		2		0
54		28		47		1		5		0
55		106		47		0		2		0
56		29		48		0		5		0
57		116		48		1		2		0
58		30		49		0		5		0
59		101		49		1		2		0
60		31		50		0		5		0
61		114		50		1		2		0
62		32		51		1		5		0
63		113		51		0		2		0
64		33		52		0		5		0
65		105		52		1		2		0
66		34		53		0		5		0
67		109		53		1		2		0
68		35		54		1		5		0
69		101		54		0		2		0
70		36		55		1		5		0
71		107		55		0		2		0
72		37		56		0		5		0
73		112		56		1		2		0
74		38		57		0		5		0
75		119		57		1		2		0
76		39		58		0		5		0
77		104		58		1		2		0
78		40		59		0		5		0
79		101		59		1		2		0
80		41		60		1		5		0
81		102		60		2		2		0
82		116		60		0		2		0
83		42		61		1		5		0
84		107		61		0		2		0
85		109		61		2		2		0
86		43		62		2		5		0
87		107		62		0		2		0
88		112		62		1		2		0
89		44		63		1		5		0
90		120		63		0		2		0
91		118		63		2		2		0
92		45		64		2		5		0
93		110		64		0		2		0
94		118		64		1		2		0
95		46		65		2		5		0
96		115		65		0		2		0
97		113		65		1		2		0
98		47		66		0		5		0
99		104		66		1		2		0
100		101		66		2		2		0
101		48		67		1		5		0
102		119		67		2		2		0
103		101		67		0		2		0
104		49		68		0		5		0
105		104		68		1		2		0
106		114		68		2		2		0
107		50		69		1		5		0
108		120		69		0		2		0
109		101		69		2		2		0
110		51		70		0		5		0
111		108		70		2		2		0
112		109		70		1		2		0
113		52		71		2		5		0
114		106		71		1		2		0
115		107		71		0		2		0
116		53		72		1		5		0
117		115		72		2		2		0
118		110		72		0		2		0
119		54		73		0		5		0
120		120		73		2		2		0
121		117		73		1		2		0
122		55		74		1		5		0
123		101		74		0		2		0
124		110		74		2		2		0
125		56		75		0		5		0
126		118		75		1		2		0
127		106		75		2		2		0
128		57		76		0		5		0
129		105		76		1		2		0
130		112		76		2		2		0
131		58		77		2		5		0
132		106		77		0		2		0
133		118		77		1		2		0
134		59		78		2		5		0
135		110		78		1		2		0
136		111		78		0		2		0
137		60		79		1		5		0
138		112		79		2		2		0
139		115		79		0		2		0
140		61		80		0		5		0
141		62		80		1		5		0
142		111		80		2		2		0
143		63		81		1		5		0
144		64		81		0		5		0
145		107		81		2		2		0
146		65		82		1		5		0
147		66		82		2		5		0
148		106		82		0		2		0
149		67		83		1		5		0
150		68		83		2		5		0
151		102		83		0		2		0
152		69		84		2		5		0
153		70		84		0		5		0
154		107		84		1		2		0
155		71		85		1		5		0
156		72		85		2		5		0
157		106		85		0		2		0
158		73		86		2		5		0
159		74		86		1		5		0
160		112		86		0		2		0
161		75		87		1		5		0
162		76		87		2		5		0
163		119		87		0		2		0
164		77		88		1		5		0
165		78		88		2		5		0
166		119		88		0		2		0
167		79		89		2		5		0
168		80		89		0		5		0
169		117		89		1		2		0
170		81		90		2		5		0
171		82		90		0		5		0
172		104		90		1		2		0
173		83		91		0		5		0
174		84		91		1		5		0
175		101		91		2		2		0
176		85		92		2		5		0
177		86		92		0		5		0
178		116		92		1		2		0
179		87		93		2		5		0
180		88		93		0		5		0
181		113		93		1		2		0
182		89		94		1		5		0
183		90		94		2		5		0
184		109		94		0		2		0
185		91		95		1		5		0
186		92		95		2		5		0
187		101		95		0		2		0
188		93		96		2		5		0
189		94		96		0		5		0
190		117		96		1		2		0
191		95		97		1		5		0
192		96		97		0		5		0
193		116		97		2		2		0
194		97		98		2		5		0
195		98		98		0		5		0
196		110		98		1		2		0
197		99		99		1		5		0
198		100		99		2		5		0
199		101		99		0		2		0
